3 100 1339
9 7 3 4 8 6 2 6 3 8
3 3 1
6 9 4
9 5 4
9
0 40.0 50.0 0.0 0.0 0 1236
2 45.0 68.0 90.0 10.0 885 994 1 0 0 1 0 1 0 0 0 0 0
3 45.0 70.0 90.0 30.0 802 893 64 0 1 0 0 0 0 0 1 0 0
4 42.0 66.0 90.0 10.0 25 186 15 1 1 0 0 1 0 0 0 1 0
5 42.0 68.0 90.0 10.0 699 810 83 0 0 1 0 1 0 0 1 0 0
6 42.0 65.0 90.0 10.0 15 120 10 0 0 0 1 0 0 1 0 0 0
7 40.0 69.0 90.0 20.0 580 743 48 0 0 0 0 1 1 1 0 0 0
8 40.0 66.0 90.0 20.0 142 253 7 0 0 1 0 0 0 1 0 0 0
9 38.0 68.0 90.0 20.0 220 359 22 0 0 0 0 0 1 0 0 0 0
10 38.0 70.0 90.0 10.0 499 640 9 0 0 0 0 1 0 0 0 0 0
11 35.0 66.0 90.0 10.0 331 436 95 0 0 1 0 1 0 0 0 0 0
12 35.0 69.0 90.0 10.0 420 533 89 0 0 0 0 0 1 0 0 0 0
13 25.0 85.0 90.0 20.0 617 756 77 1 0 0 1 1 1 0 0 0 0
14 22.0 75.0 90.0 30.0 30 155 19 0 0 0 0 0 0 0 0 0 1
15 22.0 85.0 90.0 10.0 541 646 49 0 1 0 0 1 0 0 0 0 0
16 20.0 80.0 90.0 40.0 362 451 90 0 1 0 1 1 0 0 0 0 0
17 20.0 85.0 90.0 40.0 448 555 37 1 0 0 0 0 0 0 0 0 0
18 18.0 75.0 90.0 20.0 75 172 34 0 0 0 1 0 0 0 1 0 0
19 15.0 75.0 90.0 20.0 142 291 48 1 1 0 0 0 0 0 0 0 1
20 15.0 80.0 90.0 10.0 244 379 30 0 0 0 0 1 0 0 0 0 0
21 30.0 50.0 90.0 10.0 10 137 99 0 0 0 0 0 1 0 0 0 0
22 30.0 52.0 90.0 20.0 888 991 78 1 0 0 0 0 0 0 0 0 1
23 28.0 52.0 90.0 20.0 776 919 59 0 0 0 0 1 0 0 1 0 1
24 28.0 55.0 90.0 10.0 709 800 95 0 1 0 0 0 0 0 0 0 1
25 25.0 50.0 90.0 10.0 25 184 28 0 0 1 0 0 0 0 0 0 0
26 25.0 52.0 90.0 40.0 142 251 97 1 1 0 0 0 0 1 0 0 0
27 25.0 55.0 90.0 10.0 582 741 61 0 1 0 0 1 0 0 0 0 1
28 23.0 52.0 90.0 10.0 234 343 79 0 0 0 0 0 1 0 0 0 0
29 23.0 55.0 90.0 20.0 523 616 50 0 0 0 0 0 1 0 0 0 0
30 20.0 50.0 90.0 10.0 335 428 92 0 0 1 0 1 0 0 0 0 0
31 20.0 55.0 90.0 10.0 422 531 69 1 0 0 0 0 0 1 0 1 0
32 10.0 35.0 90.0 20.0 181 256 62 0 0 0 0 0 0 1 0 0 0
33 10.0 40.0 90.0 30.0 31 170 40 1 0 0 0 0 0 0 0 0 0
34 8.0 40.0 90.0 40.0 52 193 13 0 0 0 1 0 1 0 0 0 1
35 8.0 45.0 90.0 20.0 719 848 64 1 1 0 0 0 0 1 0 0 0
36 5.0 35.0 90.0 10.0 252 375 23 0 0 1 0 0 0 0 1 0 0
37 5.0 45.0 90.0 10.0 639 742 43 0 1 0 0 0 0 1 0 0 0
38 2.0 40.0 90.0 20.0 357 460 56 1 0 0 0 0 0 0 0 0 0
39 0.0 40.0 90.0 30.0 457 544 59 1 0 1 1 0 0 0 0 0 1
40 0.0 45.0 90.0 20.0 538 653 3 0 1 1 0 0 0 0 0 1 0
41 35.0 30.0 90.0 10.0 236 349 25 0 0 1 0 0 1 0 1 1 0
42 35.0 32.0 90.0 10.0 132 269 51 0 0 0 0 0 1 0 0 0 0
43 33.0 32.0 90.0 20.0 27 190 88 0 0 1 0 0 0 1 0 0 0
44 33.0 35.0 90.0 10.0 16 144 8 0 0 0 0 1 0 0 0 0 0
45 32.0 30.0 90.0 10.0 332 439 62 0 0 0 0 0 1 0 0 0 0
46 30.0 30.0 90.0 10.0 512 629 73 0 0 0 1 0 0 0 0 0 0
47 30.0 32.0 90.0 30.0 417 540 84 0 0 0 0 0 1 1 0 0 0
48 30.0 35.0 90.0 10.0 982 1127 40 0 0 0 0 0 0 0 0 0 1
49 28.0 30.0 90.0 10.0 601 724 1 1 0 0 0 0 0 0 1 0 0
50 28.0 35.0 90.0 10.0 969 1098 0 1 0 0 0 0 1 0 0 0 0
51 26.0 32.0 90.0 10.0 783 912 15 0 0 0 1 0 0 0 0 0 0
52 25.0 30.0 90.0 10.0 695 816 55 0 0 0 0 1 1 0 0 0 0
53 25.0 35.0 90.0 10.0 883 998 24 0 0 0 0 0 0 0 1 0 0
54 44.0 5.0 90.0 20.0 255 378 49 0 1 0 0 0 0 1 0 0 1
55 42.0 10.0 90.0 40.0 150 293 68 0 0 0 1 0 0 0 1 0 0
56 42.0 15.0 90.0 10.0 63 190 19 0 0 0 0 0 1 0 0 0 0
57 40.0 5.0 90.0 30.0 359 462 57 0 0 0 0 1 1 0 0 0 1
58 40.0 15.0 90.0 40.0 35 140 1 0 1 0 0 0 0 0 0 0 0
59 38.0 5.0 90.0 30.0 439 566 11 0 0 1 0 0 0 0 0 0 0
60 38.0 15.0 90.0 10.0 607 784 87 0 0 0 0 1 0 0 0 0 0
61 35.0 5.0 90.0 20.0 529 662 83 1 0 0 0 0 0 0 0 0 0
62 50.0 30.0 90.0 10.0 491 650 7 0 0 0 0 1 0 0 0 0 1
63 50.0 35.0 90.0 20.0 235 344 56 0 0 0 0 0 1 0 1 0 0
64 50.0 40.0 90.0 50.0 147 242 47 1 0 0 0 0 1 0 1 1 0
65 48.0 30.0 90.0 10.0 601 724 9 0 0 0 0 0 1 0 0 0 0
66 48.0 40.0 90.0 10.0 50 155 61 1 0 0 0 0 0 0 1 0 0
67 47.0 35.0 90.0 10.0 802 899 14 0 0 0 0 0 0 0 0 0 1
68 47.0 40.0 90.0 10.0 12 143 42 0 0 0 0 0 0 0 1 1 1
69 45.0 30.0 90.0 10.0 712 799 70 1 0 0 0 0 1 1 1 1 0
70 45.0 35.0 90.0 10.0 889 996 66 0 0 0 0 1 0 0 0 0 0
71 95.0 30.0 90.0 30.0 353 490 74 1 1 0 0 0 0 0 0 0 1
72 95.0 35.0 90.0 20.0 260 393 91 0 0 0 0 1 0 0 0 0 0
73 53.0 30.0 90.0 10.0 422 533 53 0 0 0 0 0 1 0 0 0 0
74 92.0 30.0 90.0 10.0 442 587 57 1 1 1 0 1 1 0 1 0 0
75 53.0 35.0 90.0 50.0 323 442 47 1 0 0 0 0 0 0 0 0 1
76 45.0 65.0 90.0 20.0 962 1103 26 0 0 0 0 1 0 0 0 0 0
77 90.0 35.0 90.0 10.0 175 288 35 1 0 0 0 0 1 0 0 1 0
78 88.0 30.0 90.0 10.0 539 678 67 0 1 0 0 0 0 0 0 1 0
79 88.0 35.0 90.0 20.0 78 201 64 1 0 0 0 0 0 0 0 0 0
80 87.0 30.0 90.0 10.0 636 763 95 0 0 0 0 1 0 0 1 0 0
81 85.0 25.0 90.0 10.0 744 845 51 0 0 0 0 0 1 0 0 0 0
82 85.0 35.0 90.0 30.0 47 201 67 0 0 0 0 0 1 0 0 0 0
83 75.0 55.0 90.0 20.0 344 445 81 0 1 0 0 0 0 0 0 0 0
84 72.0 55.0 90.0 10.0 228 375 89 0 1 1 0 0 1 0 1 0 0
85 70.0 58.0 90.0 20.0 425 556 94 0 0 0 0 1 0 0 0 0 1
86 68.0 60.0 90.0 30.0 527 640 71 0 0 0 0 0 0 0 0 1 0
87 66.0 55.0 90.0 10.0 141 270 14 1 0 0 1 1 0 0 0 0 0
88 65.0 55.0 90.0 20.0 56 173 44 0 0 0 0 0 1 0 0 0 0
89 65.0 60.0 90.0 30.0 614 739 6 0 1 0 0 0 0 0 0 1 0
90 63.0 58.0 90.0 10.0 705 834 47 0 1 0 1 0 1 0 0 0 0
91 60.0 55.0 90.0 10.0 20 148 20 1 1 0 1 1 0 0 0 0 0
92 60.0 60.0 90.0 10.0 809 916 81 1 0 1 0 1 0 0 0 0 1
93 67.0 85.0 90.0 20.0 331 478 41 0 0 0 1 1 1 0 1 0 0
94 65.0 85.0 90.0 40.0 453 540 50 0 0 0 0 1 0 0 0 0 0
95 65.0 82.0 90.0 10.0 260 361 14 0 0 0 0 0 0 1 1 0 0
96 62.0 80.0 90.0 30.0 174 261 31 0 0 0 1 0 0 0 0 0 1
97 60.0 80.0 90.0 10.0 64 187 54 0 0 0 0 0 1 0 0 0 0
98 60.0 85.0 90.0 30.0 531 652 80 0 0 1 0 1 0 0 0 0 0
99 58.0 75.0 90.0 20.0 30 139 41 1 0 0 0 0 0 0 0 0 0
100 55.0 80.0 90.0 10.0 705 858 63 0 0 1 0 0 0 0 0 0 0
101 55.0 85.0 90.0 20.0 608 765 24 0 1 0 0 0 0 0 0 0 0